p cnf 200 1110
-101 -21 0
-101 46 0
-101 -51 0
-101 -18 0
-101 14 0
-101 73 0
-101 -97 0
-101 -82 0
-101 45 0
-101 -23 0
101 21 -46 51 18 -14 -73 97 82 -45 23 0
-102 85 0
-102 -11 0
-102 10 0
-102 -25 0
-102 58 0
-102 87 0
-102 61 0
-102 57 0
-102 -98 0
-102 46 0
102 -85 11 -10 25 -58 -87 -61 -57 98 -46 0
-103 -72 0
-103 -34 0
-103 32 0
-103 -23 0
-103 -48 0
-103 -25 0
-103 38 0
-103 -84 0
-103 59 0
-103 12 0
103 72 34 -32 23 48 25 -38 84 -59 -12 0
-104 -44 0
-104 17 0
-104 -63 0
-104 -47 0
-104 -43 0
-104 29 0
-104 -89 0
-104 -61 0
-104 -71 0
-104 -19 0
104 44 -17 63 47 43 -29 89 61 71 19 0
-105 -87 0
-105 -43 0
-105 -21 0
-105 -42 0
-105 82 0
-105 89 0
-105 -57 0
-105 12 0
-105 -36 0
-105 54 0
105 87 43 21 42 -82 -89 57 -12 36 -54 0
-106 -52 0
-106 -34 0
-106 -30 0
-106 3 0
-106 -90 0
-106 18 0
-106 -98 0
-106 64 0
-106 -93 0
-106 39 0
106 52 34 30 -3 90 -18 98 -64 93 -39 0
-107 -99 0
-107 94 0
-107 -15 0
-107 97 0
-107 -51 0
-107 43 0
-107 -76 0
-107 30 0
-107 -23 0
-107 -12 0
107 99 -94 15 -97 51 -43 76 -30 23 12 0
-108 -73 0
-108 -28 0
-108 -67 0
-108 -21 0
-108 81 0
-108 33 0
-108 60 0
-108 -3 0
-108 -68 0
-108 66 0
108 73 28 67 21 -81 -33 -60 3 68 -66 0
-109 -57 0
-109 -45 0
-109 18 0
-109 -99 0
-109 -11 0
-109 -60 0
-109 52 0
-109 74 0
-109 -71 0
-109 50 0
109 57 45 -18 99 11 60 -52 -74 71 -50 0
-110 95 0
-110 -8 0
-110 -20 0
-110 38 0
-110 -91 0
-110 -69 0
-110 -65 0
-110 62 0
-110 -36 0
-110 -19 0
110 -95 8 20 -38 91 69 65 -62 36 19 0
101 102 103 104 105 106 107 108 109 110 0
-111 9 0
-111 -64 0
-111 20 0
-111 34 0
-111 83 0
-111 14 0
-111 92 0
-111 100 0
-111 -10 0
-111 -52 0
111 -9 64 -20 -34 -83 -14 -92 -100 10 52 0
-112 12 0
-112 78 0
-112 -100 0
-112 21 0
-112 -83 0
-112 86 0
-112 23 0
-112 -9 0
-112 -90 0
-112 -4 0
112 -12 -78 100 -21 83 -86 -23 9 90 4 0
-113 84 0
-113 8 0
-113 21 0
-113 18 0
-113 6 0
-113 -87 0
-113 -37 0
-113 77 0
-113 60 0
-113 81 0
113 -84 -8 -21 -18 -6 87 37 -77 -60 -81 0
-114 18 0
-114 1 0
-114 -66 0
-114 38 0
-114 -83 0
-114 -52 0
-114 -73 0
-114 31 0
-114 92 0
-114 23 0
114 -18 -1 66 -38 83 52 73 -31 -92 -23 0
-115 57 0
-115 76 0
-115 58 0
-115 95 0
-115 5 0
-115 -36 0
-115 91 0
-115 -4 0
-115 51 0
-115 53 0
115 -57 -76 -58 -95 -5 36 -91 4 -51 -53 0
-116 65 0
-116 -93 0
-116 -83 0
-116 -100 0
-116 -23 0
-116 90 0
-116 -20 0
-116 80 0
-116 -51 0
-116 -60 0
116 -65 93 83 100 23 -90 20 -80 51 60 0
-117 -75 0
-117 68 0
-117 -4 0
-117 -48 0
-117 -61 0
-117 72 0
-117 -66 0
-117 92 0
-117 5 0
-117 -39 0
117 75 -68 4 48 61 -72 66 -92 -5 39 0
-118 40 0
-118 35 0
-118 -3 0
-118 11 0
-118 -56 0
-118 -57 0
-118 -21 0
-118 -7 0
-118 -83 0
-118 -100 0
118 -40 -35 3 -11 56 57 21 7 83 100 0
-119 77 0
-119 -84 0
-119 32 0
-119 76 0
-119 -96 0
-119 48 0
-119 -1 0
-119 -87 0
-119 -61 0
-119 -25 0
119 -77 84 -32 -76 96 -48 1 87 61 25 0
-120 93 0
-120 45 0
-120 28 0
-120 78 0
-120 91 0
-120 36 0
-120 95 0
-120 76 0
-120 -49 0
-120 57 0
120 -93 -45 -28 -78 -91 -36 -95 -76 49 -57 0
111 112 113 114 115 116 117 118 119 120 0
-121 -60 0
-121 56 0
-121 62 0
-121 22 0
-121 93 0
-121 26 0
-121 -92 0
-121 4 0
-121 40 0
-121 -91 0
121 60 -56 -62 -22 -93 -26 92 -4 -40 91 0
-122 -89 0
-122 -62 0
-122 25 0
-122 -60 0
-122 36 0
-122 17 0
-122 -75 0
-122 -97 0
-122 -73 0
-122 67 0
122 89 62 -25 60 -36 -17 75 97 73 -67 0
-123 -16 0
-123 -38 0
-123 -81 0
-123 -87 0
-123 79 0
-123 50 0
-123 -51 0
-123 52 0
-123 -72 0
-123 -60 0
123 16 38 81 87 -79 -50 51 -52 72 60 0
-124 2 0
-124 -43 0
-124 -54 0
-124 45 0
-124 -24 0
-124 76 0
-124 -33 0
-124 -95 0
-124 -13 0
-124 36 0
124 -2 43 54 -45 24 -76 33 95 13 -36 0
-125 -12 0
-125 20 0
-125 5 0
-125 77 0
-125 71 0
-125 -78 0
-125 40 0
-125 100 0
-125 73 0
-125 57 0
125 12 -20 -5 -77 -71 78 -40 -100 -73 -57 0
-126 53 0
-126 45 0
-126 48 0
-126 60 0
-126 -78 0
-126 46 0
-126 -43 0
-126 -39 0
-126 -86 0
-126 -76 0
126 -53 -45 -48 -60 78 -46 43 39 86 76 0
-127 -18 0
-127 -48 0
-127 -31 0
-127 -68 0
-127 -41 0
-127 -93 0
-127 -63 0
-127 82 0
-127 -55 0
-127 74 0
127 18 48 31 68 41 93 63 -82 55 -74 0
-128 -78 0
-128 49 0
-128 -89 0
-128 21 0
-128 97 0
-128 -9 0
-128 -76 0
-128 60 0
-128 -61 0
-128 95 0
128 78 -49 89 -21 -97 9 76 -60 61 -95 0
-129 -58 0
-129 56 0
-129 -38 0
-129 -64 0
-129 -77 0
-129 -54 0
-129 48 0
-129 86 0
-129 41 0
-129 -80 0
129 58 -56 38 64 77 54 -48 -86 -41 80 0
-130 -8 0
-130 20 0
-130 30 0
-130 -83 0
-130 -39 0
-130 -54 0
-130 -3 0
-130 84 0
-130 85 0
-130 78 0
130 8 -20 -30 83 39 54 3 -84 -85 -78 0
121 122 123 124 125 126 127 128 129 130 0
-131 12 0
-131 38 0
-131 -5 0
-131 66 0
-131 11 0
-131 33 0
-131 -96 0
-131 41 0
-131 -86 0
-131 51 0
131 -12 -38 5 -66 -11 -33 96 -41 86 -51 0
-132 46 0
-132 39 0
-132 59 0
-132 69 0
-132 33 0
-132 84 0
-132 34 0
-132 -71 0
-132 -7 0
-132 -80 0
132 -46 -39 -59 -69 -33 -84 -34 71 7 80 0
-133 -38 0
-133 53 0
-133 13 0
-133 -14 0
-133 99 0
-133 -6 0
-133 43 0
-133 74 0
-133 -97 0
-133 56 0
133 38 -53 -13 14 -99 6 -43 -74 97 -56 0
-134 -69 0
-134 82 0
-134 -83 0
-134 77 0
-134 8 0
-134 -17 0
-134 92 0
-134 -43 0
-134 5 0
-134 -50 0
134 69 -82 83 -77 -8 17 -92 43 -5 50 0
-135 -41 0
-135 53 0
-135 33 0
-135 -42 0
-135 -100 0
-135 -15 0
-135 59 0
-135 49 0
-135 -98 0
-135 -21 0
135 41 -53 -33 42 100 15 -59 -49 98 21 0
-136 13 0
-136 52 0
-136 -9 0
-136 65 0
-136 -66 0
-136 54 0
-136 19 0
-136 -83 0
-136 76 0
-136 -29 0
136 -13 -52 9 -65 66 -54 -19 83 -76 29 0
-137 -21 0
-137 75 0
-137 23 0
-137 -73 0
-137 24 0
-137 -43 0
-137 -40 0
-137 -30 0
-137 -95 0
-137 -28 0
137 21 -75 -23 73 -24 43 40 30 95 28 0
-138 42 0
-138 36 0
-138 58 0
-138 -86 0
-138 -96 0
-138 -41 0
-138 -3 0
-138 -8 0
-138 -81 0
-138 -83 0
138 -42 -36 -58 86 96 41 3 8 81 83 0
-139 28 0
-139 87 0
-139 -78 0
-139 21 0
-139 47 0
-139 -71 0
-139 -91 0
-139 98 0
-139 5 0
-139 -24 0
139 -28 -87 78 -21 -47 71 91 -98 -5 24 0
-140 -10 0
-140 -26 0
-140 -35 0
-140 -38 0
-140 85 0
-140 34 0
-140 19 0
-140 77 0
-140 59 0
-140 -43 0
140 10 26 35 38 -85 -34 -19 -77 -59 43 0
131 132 133 134 135 136 137 138 139 140 0
-141 8 0
-141 -39 0
-141 88 0
-141 66 0
-141 -58 0
-141 -75 0
-141 -10 0
-141 9 0
-141 20 0
-141 -72 0
141 -8 39 -88 -66 58 75 10 -9 -20 72 0
-142 95 0
-142 -15 0
-142 19 0
-142 7 0
-142 99 0
-142 -12 0
-142 -61 0
-142 -40 0
-142 81 0
-142 -14 0
142 -95 15 -19 -7 -99 12 61 40 -81 14 0
-143 73 0
-143 -20 0
-143 -72 0
-143 -24 0
-143 94 0
-143 81 0
-143 50 0
-143 58 0
-143 -27 0
-143 21 0
143 -73 20 72 24 -94 -81 -50 -58 27 -21 0
-144 -97 0
-144 -50 0
-144 6 0
-144 -91 0
-144 -66 0
-144 84 0
-144 15 0
-144 -4 0
-144 -61 0
-144 -34 0
144 97 50 -6 91 66 -84 -15 4 61 34 0
-145 -65 0
-145 -10 0
-145 -90 0
-145 36 0
-145 1 0
-145 12 0
-145 22 0
-145 61 0
-145 -80 0
-145 -76 0
145 65 10 90 -36 -1 -12 -22 -61 80 76 0
-146 94 0
-146 64 0
-146 13 0
-146 -2 0
-146 58 0
-146 -79 0
-146 20 0
-146 75 0
-146 71 0
-146 27 0
146 -94 -64 -13 2 -58 79 -20 -75 -71 -27 0
-147 12 0
-147 -76 0
-147 -41 0
-147 69 0
-147 -65 0
-147 66 0
-147 85 0
-147 82 0
-147 -10 0
-147 36 0
147 -12 76 41 -69 65 -66 -85 -82 10 -36 0
-148 -64 0
-148 -52 0
-148 -80 0
-148 20 0
-148 9 0
-148 -86 0
-148 1 0
-148 76 0
-148 -58 0
-148 87 0
148 64 52 80 -20 -9 86 -1 -76 58 -87 0
-149 -81 0
-149 98 0
-149 31 0
-149 -51 0
-149 63 0
-149 -52 0
-149 5 0
-149 -84 0
-149 -29 0
-149 -57 0
149 81 -98 -31 51 -63 52 -5 84 29 57 0
-150 -24 0
-150 9 0
-150 99 0
-150 -57 0
-150 69 0
-150 -26 0
-150 95 0
-150 20 0
-150 88 0
-150 -14 0
150 24 -9 -99 57 -69 26 -95 -20 -88 14 0
141 142 143 144 145 146 147 148 149 150 0
-151 -28 0
-151 18 0
-151 -42 0
-151 -79 0
-151 88 0
-151 -50 0
-151 -67 0
-151 -24 0
-151 73 0
-151 61 0
151 28 -18 42 79 -88 50 67 24 -73 -61 0
-152 80 0
-152 50 0
-152 -2 0
-152 -83 0
-152 -98 0
-152 -69 0
-152 63 0
-152 -1 0
-152 10 0
-152 -35 0
152 -80 -50 2 83 98 69 -63 1 -10 35 0
-153 23 0
-153 -1 0
-153 13 0
-153 56 0
-153 -75 0
-153 -97 0
-153 -14 0
-153 43 0
-153 -36 0
-153 96 0
153 -23 1 -13 -56 75 97 14 -43 36 -96 0
-154 -91 0
-154 34 0
-154 -88 0
-154 20 0
-154 -16 0
-154 13 0
-154 37 0
-154 86 0
-154 54 0
-154 -15 0
154 91 -34 88 -20 16 -13 -37 -86 -54 15 0
-155 100 0
-155 92 0
-155 28 0
-155 -38 0
-155 78 0
-155 -82 0
-155 -37 0
-155 31 0
-155 -14 0
-155 -19 0
155 -100 -92 -28 38 -78 82 37 -31 14 19 0
-156 -64 0
-156 67 0
-156 53 0
-156 24 0
-156 -66 0
-156 -15 0
-156 84 0
-156 86 0
-156 -71 0
-156 49 0
156 64 -67 -53 -24 66 15 -84 -86 71 -49 0
-157 61 0
-157 43 0
-157 -32 0
-157 -24 0
-157 34 0
-157 36 0
-157 -26 0
-157 19 0
-157 84 0
-157 9 0
157 -61 -43 32 24 -34 -36 26 -19 -84 -9 0
-158 -13 0
-158 -26 0
-158 12 0
-158 90 0
-158 29 0
-158 11 0
-158 9 0
-158 87 0
-158 41 0
-158 -38 0
158 13 26 -12 -90 -29 -11 -9 -87 -41 38 0
-159 -11 0
-159 -17 0
-159 -34 0
-159 64 0
-159 -29 0
-159 75 0
-159 51 0
-159 -67 0
-159 -84 0
-159 -69 0
159 11 17 34 -64 29 -75 -51 67 84 69 0
-160 24 0
-160 4 0
-160 -37 0
-160 56 0
-160 -46 0
-160 79 0
-160 -98 0
-160 -11 0
-160 -32 0
-160 71 0
160 -24 -4 37 -56 46 -79 98 11 32 -71 0
151 152 153 154 155 156 157 158 159 160 0
-161 87 0
-161 97 0
-161 70 0
-161 -24 0
-161 9 0
-161 -31 0
-161 -44 0
-161 28 0
-161 64 0
-161 34 0
161 -87 -97 -70 24 -9 31 44 -28 -64 -34 0
-162 67 0
-162 -91 0
-162 35 0
-162 -23 0
-162 86 0
-162 -72 0
-162 -18 0
-162 -57 0
-162 -9 0
-162 58 0
162 -67 91 -35 23 -86 72 18 57 9 -58 0
-163 16 0
-163 -26 0
-163 42 0
-163 80 0
-163 -10 0
-163 44 0
-163 65 0
-163 98 0
-163 74 0
-163 68 0
163 -16 26 -42 -80 10 -44 -65 -98 -74 -68 0
-164 23 0
-164 49 0
-164 -44 0
-164 11 0
-164 68 0
-164 -94 0
-164 -56 0
-164 99 0
-164 20 0
-164 -87 0
164 -23 -49 44 -11 -68 94 56 -99 -20 87 0
-165 61 0
-165 98 0
-165 -41 0
-165 36 0
-165 26 0
-165 27 0
-165 -2 0
-165 16 0
-165 -17 0
-165 -66 0
165 -61 -98 41 -36 -26 -27 2 -16 17 66 0
-166 -21 0
-166 -97 0
-166 -67 0
-166 -52 0
-166 -2 0
-166 62 0
-166 -32 0
-166 75 0
-166 -61 0
-166 -27 0
166 21 97 67 52 2 -62 32 -75 61 27 0
-167 -69 0
-167 98 0
-167 -27 0
-167 -19 0
-167 56 0
-167 99 0
-167 42 0
-167 -57 0
-167 29 0
-167 -71 0
167 69 -98 27 19 -56 -99 -42 57 -29 71 0
-168 84 0
-168 24 0
-168 36 0
-168 -37 0
-168 31 0
-168 11 0
-168 -32 0
-168 22 0
-168 -79 0
-168 -100 0
168 -84 -24 -36 37 -31 -11 32 -22 79 100 0
-169 6 0
-169 -54 0
-169 33 0
-169 -12 0
-169 -83 0
-169 -61 0
-169 -18 0
-169 -89 0
-169 97 0
-169 -2 0
169 -6 54 -33 12 83 61 18 89 -97 2 0
-170 -41 0
-170 74 0
-170 -5 0
-170 79 0
-170 76 0
-170 71 0
-170 -18 0
-170 23 0
-170 60 0
-170 26 0
170 41 -74 5 -79 -76 -71 18 -23 -60 -26 0
161 162 163 164 165 166 167 168 169 170 0
-171 -5 0
-171 -25 0
-171 -96 0
-171 -34 0
-171 -61 0
-171 41 0
-171 -73 0
-171 -87 0
-171 -1 0
-171 -49 0
171 5 25 96 34 61 -41 73 87 1 49 0
-172 84 0
-172 -28 0
-172 30 0
-172 67 0
-172 79 0
-172 74 0
-172 5 0
-172 -69 0
-172 13 0
-172 91 0
172 -84 28 -30 -67 -79 -74 -5 69 -13 -91 0
-173 84 0
-173 65 0
-173 -95 0
-173 99 0
-173 22 0
-173 -49 0
-173 69 0
-173 56 0
-173 -42 0
-173 67 0
173 -84 -65 95 -99 -22 49 -69 -56 42 -67 0
-174 89 0
-174 21 0
-174 -3 0
-174 -61 0
-174 -79 0
-174 -42 0
-174 58 0
-174 14 0
-174 -83 0
-174 -33 0
174 -89 -21 3 61 79 42 -58 -14 83 33 0
-175 -34 0
-175 3 0
-175 -50 0
-175 14 0
-175 6 0
-175 -19 0
-175 1 0
-175 -12 0
-175 -78 0
-175 75 0
175 34 -3 50 -14 -6 19 -1 12 78 -75 0
-176 31 0
-176 86 0
-176 58 0
-176 -46 0
-176 15 0
-176 -50 0
-176 5 0
-176 25 0
-176 -55 0
-176 100 0
176 -31 -86 -58 46 -15 50 -5 -25 55 -100 0
-177 27 0
-177 71 0
-177 -90 0
-177 -20 0
-177 75 0
-177 -1 0
-177 -14 0
-177 -55 0
-177 41 0
-177 31 0
177 -27 -71 90 20 -75 1 14 55 -41 -31 0
-178 78 0
-178 97 0
-178 -92 0
-178 21 0
-178 68 0
-178 62 0
-178 9 0
-178 50 0
-178 91 0
-178 -95 0
178 -78 -97 92 -21 -68 -62 -9 -50 -91 95 0
-179 -1 0
-179 32 0
-179 6 0
-179 61 0
-179 -62 0
-179 58 0
-179 3 0
-179 83 0
-179 -63 0
-179 20 0
179 1 -32 -6 -61 62 -58 -3 -83 63 -20 0
-180 33 0
-180 10 0
-180 -43 0
-180 -29 0
-180 22 0
-180 -75 0
-180 -49 0
-180 -24 0
-180 -77 0
-180 -93 0
180 -33 -10 43 29 -22 75 49 24 77 93 0
171 172 173 174 175 176 177 178 179 180 0
-181 2 0
-181 72 0
-181 -63 0
-181 -83 0
-181 -39 0
-181 99 0
-181 -25 0
-181 -98 0
-181 47 0
-181 -6 0
181 -2 -72 63 83 39 -99 25 98 -47 6 0
-182 29 0
-182 -65 0
-182 -12 0
-182 92 0
-182 -47 0
-182 -59 0
-182 99 0
-182 50 0
-182 58 0
-182 -10 0
182 -29 65 12 -92 47 59 -99 -50 -58 10 0
-183 -50 0
-183 84 0
-183 99 0
-183 35 0
-183 -78 0
-183 -18 0
-183 97 0
-183 20 0
-183 72 0
-183 11 0
183 50 -84 -99 -35 78 18 -97 -20 -72 -11 0
-184 7 0
-184 -88 0
-184 -4 0
-184 -16 0
-184 -92 0
-184 49 0
-184 -97 0
-184 -1 0
-184 50 0
-184 -53 0
184 -7 88 4 16 92 -49 97 1 -50 53 0
-185 -6 0
-185 30 0
-185 55 0
-185 16 0
-185 -11 0
-185 19 0
-185 87 0
-185 -14 0
-185 -68 0
-185 13 0
185 6 -30 -55 -16 11 -19 -87 14 68 -13 0
-186 55 0
-186 59 0
-186 -20 0
-186 50 0
-186 42 0
-186 -86 0
-186 23 0
-186 -56 0
-186 -15 0
-186 -73 0
186 -55 -59 20 -50 -42 86 -23 56 15 73 0
-187 -40 0
-187 65 0
-187 -9 0
-187 64 0
-187 59 0
-187 -32 0
-187 41 0
-187 73 0
-187 68 0
-187 -22 0
187 40 -65 9 -64 -59 32 -41 -73 -68 22 0
-188 -63 0
-188 56 0
-188 6 0
-188 -94 0
-188 -17 0
-188 55 0
-188 72 0
-188 -9 0
-188 98 0
-188 -95 0
188 63 -56 -6 94 17 -55 -72 9 -98 95 0
-189 -62 0
-189 -54 0
-189 16 0
-189 -65 0
-189 -73 0
-189 -98 0
-189 49 0
-189 22 0
-189 -70 0
-189 29 0
189 62 54 -16 65 73 98 -49 -22 70 -29 0
-190 10 0
-190 -27 0
-190 55 0
-190 43 0
-190 -34 0
-190 -73 0
-190 61 0
-190 6 0
-190 -91 0
-190 5 0
190 -10 27 -55 -43 34 73 -61 -6 91 -5 0
181 182 183 184 185 186 187 188 189 190 0
-191 -78 0
-191 -44 0
-191 -64 0
-191 28 0
-191 24 0
-191 -45 0
-191 31 0
-191 -25 0
-191 -95 0
-191 -93 0
191 78 44 64 -28 -24 45 -31 25 95 93 0
-192 55 0
-192 49 0
-192 36 0
-192 -78 0
-192 79 0
-192 -71 0
-192 -84 0
-192 69 0
-192 -98 0
-192 -53 0
192 -55 -49 -36 78 -79 71 84 -69 98 53 0
-193 2 0
-193 -57 0
-193 -75 0
-193 -12 0
-193 -27 0
-193 -84 0
-193 -87 0
-193 -46 0
-193 -64 0
-193 23 0
193 -2 57 75 12 27 84 87 46 64 -23 0
-194 -50 0
-194 29 0
-194 -7 0
-194 -54 0
-194 97 0
-194 67 0
-194 6 0
-194 77 0
-194 -81 0
-194 88 0
194 50 -29 7 54 -97 -67 -6 -77 81 -88 0
-195 -66 0
-195 64 0
-195 90 0
-195 77 0
-195 -36 0
-195 32 0
-195 48 0
-195 -31 0
-195 -87 0
-195 -95 0
195 66 -64 -90 -77 36 -32 -48 31 87 95 0
-196 -2 0
-196 72 0
-196 19 0
-196 75 0
-196 -1 0
-196 -85 0
-196 31 0
-196 -42 0
-196 76 0
-196 -70 0
196 2 -72 -19 -75 1 85 -31 42 -76 70 0
-197 76 0
-197 -19 0
-197 -91 0
-197 13 0
-197 3 0
-197 -67 0
-197 -79 0
-197 54 0
-197 58 0
-197 -49 0
197 -76 19 91 -13 -3 67 79 -54 -58 49 0
-198 -39 0
-198 -83 0
-198 67 0
-198 46 0
-198 45 0
-198 17 0
-198 -63 0
-198 5 0
-198 50 0
-198 37 0
198 39 83 -67 -46 -45 -17 63 -5 -50 -37 0
-199 -75 0
-199 -72 0
-199 85 0
-199 20 0
-199 95 0
-199 80 0
-199 -59 0
-199 -67 0
-199 -69 0
-199 -52 0
199 75 72 -85 -20 -95 -80 59 67 69 52 0
-200 18 0
-200 -15 0
-200 -54 0
-200 -86 0
-200 -88 0
-200 -85 0
-200 -65 0
-200 36 0
-200 -96 0
-200 78 0
200 -18 15 54 86 88 85 65 -36 96 -78 0
191 192 193 194 195 196 197 198 199 200 0
